
Gurobi 10.0.1 (linux64) logging started Thu 10 Aug 2023 11:17:06 PM CDT

Set parameter LogFile to value "/home/dlcole3/graph_abstraction/plasmoexamples/SHP_serial/SHP_reserve_requirements/gurobi_logs/logfile4.log"
Set parameter NodefileStart to value 0.0005
Set parameter TimeLimit to value 36000
Gurobi Optimizer version 10.0.1 build v10.0.1rc0 (linux64)

CPU model: Intel(R) Xeon(R) CPU E5-2698 v4 @ 2.20GHz, instruction set [SSE2|AVX|AVX2]
Thread count: 40 physical cores, 80 logical processors, using up to 8 threads


Warning: excessive time spent in model updates.
Consider calling update less frequently.

Optimize a model with 1105538 rows, 641709 columns and 4644125 nonzeros
Model fingerprint: 0x43ccc2c5
Variable types: 599982 continuous, 41727 integer (41727 binary)
Coefficient statistics:
  Matrix range     [5e-02, 2e+04]
  Objective range  [2e-01, 8e+04]
  Bounds range     [5e-02, 2e+04]
  RHS range        [2e-13, 7e+03]
Presolve removed 263208 rows and 118284 columns (presolve time = 5s) ...
Presolve removed 276907 rows and 124945 columns (presolve time = 10s) ...
Presolve removed 279121 rows and 128045 columns (presolve time = 15s) ...
Presolve removed 288036 rows and 132676 columns (presolve time = 20s) ...
Presolve removed 291837 rows and 132857 columns (presolve time = 25s) ...
Presolve removed 293134 rows and 133753 columns (presolve time = 30s) ...
Presolve removed 293184 rows and 133763 columns (presolve time = 35s) ...
Presolve removed 293204 rows and 133803 columns (presolve time = 40s) ...
Sparsify removed 166161 nonzeros (4%)
Presolve removed 293204 rows and 132866 columns
Presolve time: 41.03s
Presolved: 812334 rows, 508843 columns, 3924053 nonzeros
Variable types: 475366 continuous, 33477 integer (33427 binary)

Deterministic concurrent LP optimizer: primal simplex, dual simplex, and barrier
Showing barrier log only...

Root barrier log...

Elapsed ordering time = 18s
Elapsed ordering time = 20s
Elapsed ordering time = 25s
Elapsed ordering time = 30s
Elapsed ordering time = 33s
Elapsed ordering time = 36s
Elapsed ordering time = 40s
Elapsed ordering time = 45s
Elapsed ordering time = 48s
Elapsed ordering time = 50s
Elapsed ordering time = 55s
Elapsed ordering time = 62s
Elapsed ordering time = 65s
Elapsed ordering time = 70s
Ordering time: 73.35s

Barrier statistics:
 Dense cols : 172
 AA' NZ     : 2.316e+07
 Factor NZ  : 3.637e+08 (roughly 3.5 GB of memory)
 Factor Ops : 1.791e+12 (roughly 16 seconds per iteration)
 Threads    : 5

                  Objective                Residual
Iter       Primal          Dual         Primal    Dual     Compl     Time
   0  -2.12481190e+11 -1.80339572e+13  1.24e+04 1.66e+04  1.16e+08   136s
   1  -1.99684243e+11 -1.76657989e+13  1.18e+04 4.55e+06  1.10e+08   148s
   2  -1.39438732e+11 -1.67580863e+13  8.67e+03 4.48e+06  8.45e+07   163s
   3  -1.16206509e+11 -1.22764217e+13  7.35e+03 1.59e+06  6.00e+07   178s
   4  -4.45279175e+10 -7.09367532e+12  3.02e+03 7.26e+04  2.39e+07   193s
   5  -9.54425353e+09 -2.91354282e+12  8.72e+02 2.61e+00  6.77e+06   209s
   6  -9.16498345e+08 -1.18792612e+12  3.59e+02 4.28e-02  2.51e+06   225s
   7   3.98529038e+09 -4.65653166e+11  8.55e+01 2.20e-01  6.10e+05   242s
   8   4.82587744e+09 -1.95550002e+11  2.83e+01 9.11e-02  1.95e+05   260s
   9   4.16799472e+09 -7.04652275e+10  9.18e+00 3.57e-02  5.93e+04   277s
  10   2.01480514e+09 -2.50062301e+10  2.62e+00 1.10e-02  1.83e+04   293s
  11   6.34759355e+08 -5.28628957e+09  7.31e-01 1.48e-03  3.76e+03   312s
  12   9.80866396e+07 -6.74254363e+08  1.78e-02 2.34e-04  4.57e+02   331s
  13   6.83290587e+07 -8.05489979e+07  9.24e-04 2.80e-05  8.76e+01   352s
  14   5.34655180e+07 -4.17739468e+06  1.27e-04 6.63e-04  3.39e+01   372s
  15   4.98143916e+07  1.49590821e+07  6.92e-05 5.05e-04  2.05e+01   388s
  16   4.77605111e+07  2.82765079e+07  4.28e-05 2.85e-04  1.15e+01   405s
  17   4.57273300e+07  3.72864828e+07  2.40e-05 1.42e-04  4.97e+00   423s
  18   4.46711759e+07  4.03975288e+07  1.60e-05 4.68e-05  2.51e+00   441s
  19   4.34894711e+07  4.16307773e+07  7.38e-06 1.66e-05  1.09e+00   458s
  20   4.32357419e+07  4.19209942e+07  5.83e-06 1.04e-05  7.74e-01   473s
  21   4.28448854e+07  4.21341743e+07  3.54e-06 5.27e-06  4.18e-01   489s
  22   4.27039676e+07  4.21698918e+07  2.59e-06 3.76e-06  3.14e-01   503s
  23   4.25779504e+07  4.22284643e+07  1.80e-06 2.33e-06  2.06e-01   518s
  24   4.25202712e+07  4.22476962e+07  1.42e-06 2.39e-06  1.60e-01   533s
  25   4.24658322e+07  4.22617796e+07  1.04e-06 2.40e-06  1.20e-01   547s
  26   4.24437963e+07  4.22684188e+07  8.94e-07 1.94e-06  1.03e-01   561s
  27   4.24123654e+07  4.22746231e+07  1.35e-06 1.62e-06  8.11e-02   578s
  28   4.23572991e+07  4.22834930e+07  1.48e-06 1.16e-06  4.34e-02   594s
  29   4.23240002e+07  4.23019202e+07  7.74e-07 3.02e-07  1.30e-02   613s
  30   4.23184364e+07  4.23064677e+07  4.94e-07 1.08e-07  7.04e-03   640s
  31   4.23121244e+07  4.23082138e+07  2.91e-07 2.81e-08  2.30e-03   666s
  32   4.23099595e+07  4.23088748e+07  9.99e-08 5.57e-09  6.38e-04   684s
  33   4.23092325e+07  4.23091614e+07  2.30e-07 3.36e-09  4.18e-05   701s
  34   4.23092000e+07  4.23091958e+07  1.86e-08 6.16e-09  2.47e-06   718s
  35   4.23091984e+07  4.23091974e+07  1.87e-06 4.48e-09  5.41e-07   733s
  36   4.23091980e+07  4.23091980e+07  5.93e-08 9.63e-09  1.50e-09   748s

Barrier solved model in 36 iterations and 748.34 seconds (665.04 work units)
Optimal objective 4.23091980e+07


Root crossover log...

  314291 DPushes remaining with DInf 1.5108708e-06               750s
  106205 DPushes remaining with DInf 1.5108745e-06               754s
   67798 DPushes remaining with DInf 1.5108617e-06               757s
   33727 DPushes remaining with DInf 1.5108636e-06               762s
   17559 DPushes remaining with DInf 0.0000000e+00               766s
    6425 DPushes remaining with DInf 0.0000000e+00               771s
       0 DPushes remaining with DInf 0.0000000e+00               776s

   20691 PPushes remaining with PInf 0.0000000e+00               776s
    4050 PPushes remaining with PInf 0.0000000e+00               780s
       0 PPushes remaining with PInf 0.0000000e+00               783s

  Push phase complete: Pinf 0.0000000e+00, Dinf 5.3843809e-07    783s


Root simplex log...

Iteration    Objective       Primal Inf.    Dual Inf.      Time
  150295    4.2309198e+07   0.000000e+00   0.000000e+00    784s
  150295    4.2309198e+07   0.000000e+00   0.000000e+00    785s
Concurrent spin time: 46.42s

Solved with barrier

Root relaxation: objective 4.230920e+07, 150295 iterations, 787.18 seconds (664.18 work units)
Total elapsed time = 839.98s
Total elapsed time = 845.31s

    Nodes    |    Current Node    |     Objective Bounds      |     Work
 Expl Unexpl |  Obj  Depth IntInf | Incumbent    BestBd   Gap | It/Node Time

     0     0 4.2309e+07    0  185          - 4.2309e+07      -     -  854s
     0     0 4.2309e+07    0  185          - 4.2309e+07      -     -  856s
H    0     0                    4.274059e+07 4.2309e+07  1.01%     -  867s

Explored 1 nodes (150451 simplex iterations) in 868.13 seconds (730.40 work units)
Thread count was 8 (of 80 available processors)

Solution count 2: 4.27406e+07 4.27406e+07 

Optimal solution found (tolerance 5.00e-02)
Best objective 4.274059034021e+07, best bound 4.230919797658e+07, gap 1.0093%

User-callback calls 75978, time in user-callback 0.19 sec
